(set-info :smt-lib-version 2.6)
(set-logic LIA)
(set-info
  :source |
 Generated by PSyCO 0.1
 More info in N. P. Lopes and J. Monteiro. Weakest Precondition Synthesis for
 Compiler Optimizations, VMCAI'14.
|)
(set-info :category "industrial")
(set-info :status sat)
(declare-fun R_E1_V6 () Bool)
(declare-fun W_S1_V6 () Bool)
(declare-fun R_E1_V4 () Bool)
(declare-fun W_S1_V4 () Bool)
(declare-fun W_S1_V3 () Bool)
(declare-fun W_S1_V1 () Bool)
(declare-fun R_S1_V6 () Bool)
(declare-fun R_S1_V4 () Bool)
(declare-fun R_S1_V5 () Bool)
(declare-fun R_S1_V2 () Bool)
(declare-fun R_S1_V3 () Bool)
(declare-fun R_S1_V1 () Bool)
(declare-fun R_E2_V1 () Bool)
(declare-fun R_E1_V2 () Bool)
(declare-fun R_E1_V5 () Bool)
(declare-fun DISJ_W_S1_R_S1 () Bool)
(declare-fun R_E2_V6 () Bool)
(declare-fun R_E2_V4 () Bool)
(declare-fun R_E2_V5 () Bool)
(declare-fun DISJ_W_S1_R_E2 () Bool)
(declare-fun W_S1_V5 () Bool)
(declare-fun W_S1_V2 () Bool)
(declare-fun R_E1_V3 () Bool)
(declare-fun R_E1_V1 () Bool)
(declare-fun R_E2_V3 () Bool)
(declare-fun DISJ_W_S1_R_E1 () Bool)
(assert
 (let (($x56 (and W_S1_V6 R_E1_V6)))
 (let (($x61459 (not $x56)))
 (let (($x54 (and W_S1_V4 R_E1_V4)))
 (let (($x63315 (not $x54)))
 (let
 (($x61276
   (forall
    ((V2_0 Int) (V5_0 Int) 
     (V4_0 Int) (V6_0 Int) 
     (MW_S1_V1 Bool) (MW_S1_V3 Bool) 
     (MW_S1_V2 Bool) (MW_S1_V5 Bool) 
     (MW_S1_V4 Bool) (MW_S1_V6 Bool) 
     (S1_V1_!7162 Int) (S1_V1_!7168 Int) 
     (S1_V1_!7177 Int) (S1_V1_!7184 Int) 
     (S1_V3_!7163 Int) (S1_V3_!7169 Int) 
     (S1_V3_!7178 Int) (S1_V3_!7185 Int) 
     (S1_V2_!7164 Int) (S1_V2_!7170 Int) 
     (S1_V2_!7179 Int) (S1_V2_!7186 Int) 
     (E1_!7159 Int) (E1_!7174 Int) 
     (E1_!7176 Int) (E1_!7183 Int) 
     (S1_V5_!7165 Int) (S1_V5_!7171 Int) 
     (S1_V5_!7180 Int) (S1_V5_!7187 Int) 
     (E2_!7160 Int) (E2_!7161 Int) 
     (E2_!7175 Int) (S1_V4_!7166 Int) 
     (S1_V4_!7172 Int) (S1_V4_!7181 Int) 
     (S1_V4_!7188 Int) (S1_V6_!7167 Int) 
     (S1_V6_!7173 Int) (S1_V6_!7182 Int) 
     (S1_V6_!7189 Int))
    (let ((?x62770 (ite MW_S1_V6 S1_V6_!7189 V6_0)))
    (let ((?x60899 (ite MW_S1_V6 S1_V6_!7173 V6_0)))
    (let (($x59897 (= ?x60899 ?x62770)))
    (let ((?x62525 (ite MW_S1_V4 S1_V4_!7188 V4_0)))
    (let ((?x61112 (ite MW_S1_V4 S1_V4_!7172 V4_0)))
    (let (($x60149 (= ?x61112 ?x62525)))
    (let ((?x62595 (ite MW_S1_V5 S1_V5_!7187 V5_0)))
    (let ((?x62328 (ite MW_S1_V5 S1_V5_!7171 V5_0)))
    (let (($x62501 (= ?x62328 ?x62595)))
    (let ((?x62437 (ite MW_S1_V2 S1_V2_!7186 V2_0)))
    (let ((?x61190 (ite MW_S1_V2 S1_V2_!7170 V2_0)))
    (let (($x61383 (= ?x61190 ?x62437)))
    (let ((?x61126 (ite MW_S1_V3 S1_V3_!7178 E2_!7175)))
    (let ((?x60090 (+ 1 ?x61126)))
    (let ((?x62541 (ite MW_S1_V3 S1_V3_!7185 ?x60090)))
    (let ((?x62464 (ite MW_S1_V3 S1_V3_!7163 E2_!7161)))
    (let ((?x62740 (+ 1 ?x62464)))
    (let ((?x62994 (ite MW_S1_V3 S1_V3_!7169 ?x62740)))
    (let (($x61043 (= ?x62994 ?x62541)))
    (let ((?x61065 (ite MW_S1_V1 S1_V1_!7184 E1_!7183)))
    (let ((?x62575 (ite MW_S1_V1 S1_V1_!7168 E1_!7159)))
    (let (($x60922 (= ?x62575 ?x61065)))
    (let (($x62486 (and $x60922 $x61043 $x61383 $x62501 $x60149 $x59897)))
    (let ((?x60151 (+ (- 1) ?x62525)))
    (let (($x59882 (>= ?x62541 ?x60151)))
    (let ((?x62844 (+ (- 1) ?x62437)))
    (let (($x61285 (>= ?x61065 ?x62844)))
    (let ((?x62656 (ite MW_S1_V2 S1_V2_!7179 V2_0)))
    (let (($x60111 (<= ?x62656 E1_!7183)))
    (let (($x60201 (not $x60111)))
    (let ((?x62579 (ite MW_S1_V4 S1_V4_!7181 V4_0)))
    (let (($x60932 (<= ?x62579 ?x60090)))
    (let (($x62736 (not $x60932)))
    (let ((?x60981 (+ (- 1) ?x62656)))
    (let ((?x62489 (ite MW_S1_V1 S1_V1_!7177 E1_!7176)))
    (let (($x60141 (>= ?x62489 ?x60981)))
    (let (($x61078 (<= V2_0 E1_!7176)))
    (let (($x62913 (not $x61078)))
    (let (($x62569 (<= V4_0 E2_!7175)))
    (let (($x62673 (not $x62569)))
    (let (($x63099 (<= V2_0 E1_!7174)))
    (let (($x60153 (not $x63099)))
    (let ((?x60958 (+ (- 1) ?x61190)))
    (let (($x63065 (>= ?x62575 ?x60958)))
    (let ((?x62699 (+ (- 1) ?x61112)))
    (let (($x61351 (>= ?x62994 ?x62699)))
    (let ((?x62539 (ite MW_S1_V4 S1_V4_!7166 V4_0)))
    (let (($x63169 (<= ?x62539 ?x62740)))
    (let (($x61027 (not $x63169)))
    (let (($x61461 (<= V4_0 E2_!7161)))
    (let (($x61270 (not $x61461)))
    (let (($x62324 (<= V2_0 E1_!7159)))
    (let (($x62459 (not $x62324)))
    (let (($x61447 (<= V4_0 E2_!7160)))
    (let (($x62761 (not $x61447)))
    (let
    (($x62663
      (and $x62761 $x62459 $x61270 $x61027 $x61351 $x63065 $x60153 $x62673
      $x62913 $x60141 $x62736 $x60201 $x61285 $x59882)))
    (let (($x62455 (not $x62663)))
    (let (($x62636 (not MW_S1_V6)))
    (let (($x59910 (or $x62636 W_S1_V6)))
    (let (($x62697 (not MW_S1_V4)))
    (let (($x62914 (or $x62697 W_S1_V4)))
    (let (($x62812 (not MW_S1_V2)))
    (let (($x59858 (not MW_S1_V3)))
    (let (($x62895 (or $x59858 W_S1_V3)))
    (let (($x61329 (not MW_S1_V1)))
    (let (($x63061 (or $x61329 W_S1_V1)))
    (let (($x61431 (= S1_V6_!7189 S1_V6_!7173)))
    (let ((?x62808 (ite MW_S1_V6 S1_V6_!7167 V6_0)))
    (let ((?x62466 (ite MW_S1_V6 S1_V6_!7182 V6_0)))
    (let (($x63145 (= ?x62466 ?x62808)))
    (let (($x207 (not R_S1_V6)))
    (let (($x62709 (or $x207 $x63145)))
    (let (($x62630 (= ?x62579 ?x62539)))
    (let (($x205 (not R_S1_V4)))
    (let (($x63050 (or $x205 $x62630)))
    (let ((?x62845 (ite MW_S1_V5 S1_V5_!7165 V5_0)))
    (let ((?x61194 (ite MW_S1_V5 S1_V5_!7180 V5_0)))
    (let (($x60064 (= ?x61194 ?x62845)))
    (let (($x203 (not R_S1_V5)))
    (let (($x63108 (or $x203 $x60064)))
    (let ((?x60903 (ite MW_S1_V2 S1_V2_!7164 V2_0)))
    (let (($x62571 (= ?x62656 ?x60903)))
    (let (($x201 (not R_S1_V2)))
    (let (($x62695 (or $x201 $x62571)))
    (let (($x62599 (= ?x61126 ?x62464)))
    (let (($x199 (not R_S1_V3)))
    (let (($x62598 (or $x199 $x62599)))
    (let ((?x62633 (ite MW_S1_V1 S1_V1_!7162 E1_!7159)))
    (let (($x60974 (= E1_!7183 ?x62633)))
    (let (($x197 (not R_S1_V1)))
    (let (($x62329 (or $x197 $x60974)))
    (let (($x62560 (and $x62329 $x62598 $x62695 $x63108 $x63050 $x62709)))
    (let (($x61423 (not $x62560)))
    (let (($x62502 (or $x61423 $x61431)))
    (let (($x63123 (= S1_V6_!7182 S1_V6_!7189)))
    (let (($x61301 (= V6_0 ?x62466)))
    (let (($x61164 (or $x207 $x61301)))
    (let (($x62510 (= V4_0 ?x62579)))
    (let (($x62776 (or $x205 $x62510)))
    (let (($x62451 (= V5_0 ?x61194)))
    (let (($x59952 (or $x203 $x62451)))
    (let (($x62496 (= V2_0 ?x62656)))
    (let (($x61077 (or $x201 $x62496)))
    (let (($x61341 (= E2_!7175 ?x60090)))
    (let (($x60955 (or $x199 $x61341)))
    (let (($x63159 (= E1_!7176 E1_!7183)))
    (let (($x62968 (or $x197 $x63159)))
    (let (($x60067 (and $x62968 $x60955 $x61077 $x59952 $x62776 $x61164)))
    (let (($x62425 (not $x60067)))
    (let (($x60082 (or $x62425 $x63123)))
    (let (($x62345 (= S1_V6_!7182 S1_V6_!7173)))
    (let (($x62929 (= V6_0 ?x62808)))
    (let (($x62412 (or $x207 $x62929)))
    (let (($x61289 (= V4_0 ?x62539)))
    (let (($x62713 (or $x205 $x61289)))
    (let (($x60102 (= V5_0 ?x62845)))
    (let (($x60185 (or $x203 $x60102)))
    (let (($x62295 (= V2_0 ?x60903)))
    (let (($x59862 (or $x201 $x62295)))
    (let (($x62828 (= E2_!7175 ?x62740)))
    (let (($x60977 (or $x199 $x62828)))
    (let (($x60215 (= E1_!7176 ?x62633)))
    (let (($x61152 (or $x197 $x60215)))
    (let (($x62261 (and $x61152 $x60977 $x59862 $x60185 $x62713 $x62412)))
    (let (($x62471 (not $x62261)))
    (let (($x62691 (or $x62471 $x62345)))
    (let (($x61333 (= S1_V6_!7167 S1_V6_!7189)))
    (let (($x62335 (= E2_!7161 ?x60090)))
    (let (($x60929 (or $x199 $x62335)))
    (let (($x61453 (= E1_!7159 E1_!7183)))
    (let (($x60211 (or $x197 $x61453)))
    (let (($x61267 (and $x60211 $x60929 $x61077 $x59952 $x62776 $x61164)))
    (let (($x63179 (not $x61267)))
    (let (($x60177 (or $x63179 $x61333)))
    (let (($x60912 (= S1_V6_!7167 S1_V6_!7182)))
    (let (($x60171 (= E2_!7161 E2_!7175)))
    (let (($x62647 (or $x199 $x60171)))
    (let (($x62649 (= E1_!7159 E1_!7176)))
    (let (($x63167 (or $x197 $x62649)))
    (let (($x61291 (and $x63167 $x62647)))
    (let (($x62606 (not $x61291)))
    (let (($x62841 (or $x62606 $x60912)))
    (let (($x62534 (= S1_V6_!7167 S1_V6_!7173)))
    (let (($x62683 (= E2_!7161 ?x62740)))
    (let (($x61118 (or $x199 $x62683)))
    (let (($x60927 (= E1_!7159 ?x62633)))
    (let (($x60161 (or $x197 $x60927)))
    (let (($x62692 (and $x60161 $x61118 $x59862 $x60185 $x62713 $x62412)))
    (let (($x62278 (not $x62692)))
    (let (($x60965 (or $x62278 $x62534)))
    (let (($x61353 (= S1_V4_!7188 S1_V4_!7181)))
    (let (($x61409 (= ?x62466 V6_0)))
    (let (($x59901 (or $x207 $x61409)))
    (let (($x60945 (= ?x62579 V4_0)))
    (let (($x63002 (or $x205 $x60945)))
    (let (($x60910 (= ?x61194 V5_0)))
    (let (($x60959 (or $x203 $x60910)))
    (let (($x62529 (= ?x62656 V2_0)))
    (let (($x60917 (or $x201 $x62529)))
    (let ((?x62876 (+ (- 1) E2_!7175)))
    (let (($x60964 (= ?x61126 ?x62876)))
    (let (($x62507 (or $x199 $x60964)))
    (let (($x62650 (= E1_!7183 E1_!7176)))
    (let (($x62660 (or $x197 $x62650)))
    (let (($x62651 (and $x62660 $x62507 $x60917 $x60959 $x63002 $x59901)))
    (let (($x63164 (not $x62651)))
    (let (($x62700 (or $x63164 $x61353)))
    (let (($x63143 (= S1_V4_!7188 S1_V4_!7172)))
    (let (($x62758 (or $x61423 $x63143)))
    (let (($x63105 (= S1_V4_!7188 S1_V4_!7166)))
    (let ((?x63141 (+ (- 1) E2_!7161)))
    (let (($x63112 (= ?x61126 ?x63141)))
    (let (($x63004 (or $x199 $x63112)))
    (let (($x59930 (= E1_!7183 E1_!7159)))
    (let (($x62317 (or $x197 $x59930)))
    (let (($x62954 (and $x62317 $x63004 $x60917 $x60959 $x63002 $x59901)))
    (let (($x63180 (not $x62954)))
    (let (($x59928 (or $x63180 $x63105)))
    (let (($x62871 (= S1_V4_!7181 S1_V4_!7172)))
    (let (($x62984 (or $x62471 $x62871)))
    (let (($x62576 (= S1_V4_!7181 S1_V4_!7166)))
    (let (($x61475 (= E2_!7175 E2_!7161)))
    (let (($x63158 (or $x199 $x61475)))
    (let (($x62390 (= E1_!7176 E1_!7159)))
    (let (($x60108 (or $x197 $x62390)))
    (let (($x62394 (and $x60108 $x63158)))
    (let (($x62330 (not $x62394)))
    (let (($x62434 (or $x62330 $x62576)))
    (let (($x61148 (= S1_V4_!7172 S1_V4_!7166)))
    (let (($x63139 (= ?x62808 V6_0)))
    (let (($x62313 (or $x207 $x63139)))
    (let (($x61497 (= ?x62539 V4_0)))
    (let (($x62622 (or $x205 $x61497)))
    (let (($x59976 (= ?x62845 V5_0)))
    (let (($x62628 (or $x203 $x59976)))
    (let (($x63176 (= ?x60903 V2_0)))
    (let (($x62846 (or $x201 $x63176)))
    (let (($x61226 (= ?x62464 ?x63141)))
    (let (($x61068 (or $x199 $x61226)))
    (let (($x62800 (= ?x62633 E1_!7159)))
    (let (($x59865 (or $x197 $x62800)))
    (let (($x62906 (and $x59865 $x61068 $x62846 $x62628 $x62622 $x62313)))
    (let (($x63161 (not $x62906)))
    (let (($x61142 (or $x63161 $x61148)))
    (let (($x62554 (= E1_!7174 E1_!7159)))
    (let (($x128 (not R_E2_V1)))
    (let (($x63073 (or $x128 $x62554)))
    (let (($x62356 (not $x63073)))
    (let (($x62429 (or $x62356 $x61475)))
    (let (($x59856 (= E2_!7175 E2_!7160)))
    (let (($x62258 (or $x62356 $x59856)))
    (let (($x62815 (= E2_!7160 E2_!7161)))
    (let (($x62347 (= S1_V5_!7187 S1_V5_!7180)))
    (let (($x60241 (or $x63164 $x62347)))
    (let (($x63162 (= S1_V5_!7187 S1_V5_!7171)))
    (let (($x62321 (or $x61423 $x63162)))
    (let (($x62269 (= S1_V5_!7187 S1_V5_!7165)))
    (let (($x62894 (or $x63180 $x62269)))
    (let (($x62417 (= S1_V5_!7171 S1_V5_!7180)))
    (let (($x62902 (= ?x62464 ?x62876)))
    (let (($x63160 (or $x199 $x62902)))
    (let (($x62970 (= ?x62633 E1_!7176)))
    (let (($x63046 (or $x197 $x62970)))
    (let (($x63142 (and $x63046 $x63160 $x62846 $x62628 $x62622 $x62313)))
    (let (($x61070 (not $x63142)))
    (let (($x62852 (or $x61070 $x62417)))
    (let (($x59948 (= S1_V5_!7171 S1_V5_!7165)))
    (let (($x62493 (or $x63161 $x59948)))
    (let (($x62893 (= S1_V5_!7165 S1_V5_!7180)))
    (let (($x62996 (or $x62606 $x62893)))
    (let (($x123 (not R_E1_V6)))
    (let (($x60028 (or $x123 $x61409)))
    (let (($x121 (not R_E1_V4)))
    (let (($x63027 (or $x121 $x60945)))
    (let (($x117 (not R_E1_V2)))
    (let (($x62934 (or $x117 $x62529)))
    (let (($x59863 (and $x62934 $x63027 $x60028)))
    (let (($x62563 (not $x59863)))
    (let (($x61247 (or $x62563 $x62650)))
    (let (($x61498 (= E1_!7183 E1_!7174)))
    (let (($x59846 (or $x62563 $x61498)))
    (let (($x60281 (= E1_!7174 E1_!7176)))
    (let (($x61242 (or $x123 $x61301)))
    (let (($x63010 (or $x121 $x62510)))
    (let (($x62727 (or $x117 $x62496)))
    (let (($x61325 (and $x62727 $x63010 $x61242)))
    (let (($x61026 (not $x61325)))
    (let (($x62689 (or $x61026 $x61453)))
    (let (($x60079 (= E1_!7159 E1_!7174)))
    (let (($x63359 (= S1_V2_!7186 S1_V2_!7179)))
    (let (($x61479 (or $x63164 $x63359)))
    (let (($x63033 (= S1_V2_!7170 S1_V2_!7186)))
    (let (($x62514 (= ?x62808 ?x62466)))
    (let (($x64792 (or $x207 $x62514)))
    (let (($x64269 (= ?x62539 ?x62579)))
    (let (($x60229 (or $x205 $x64269)))
    (let (($x63043 (= ?x62845 ?x61194)))
    (let (($x62635 (or $x203 $x63043)))
    (let (($x62690 (= ?x60903 ?x62656)))
    (let (($x62773 (or $x201 $x62690)))
    (let (($x62254 (= ?x62464 ?x61126)))
    (let (($x61485 (or $x199 $x62254)))
    (let (($x64075 (= ?x62633 E1_!7183)))
    (let (($x60249 (or $x197 $x64075)))
    (let (($x62786 (and $x60249 $x61485 $x62773 $x62635 $x60229 $x64792)))
    (let (($x61160 (not $x62786)))
    (let (($x61005 (or $x61160 $x63033)))
    (let (($x63036 (= S1_V2_!7170 S1_V2_!7179)))
    (let (($x62719 (or $x61070 $x63036)))
    (let (($x62822 (= S1_V2_!7164 S1_V2_!7186)))
    (let (($x62680 (or $x63179 $x62822)))
    (let (($x60968 (= S1_V2_!7164 S1_V2_!7179)))
    (let (($x59879 (or $x62606 $x60968)))
    (let (($x62289 (= S1_V2_!7164 S1_V2_!7170)))
    (let (($x62467 (or $x62278 $x62289)))
    (let (($x62735 (= S1_V3_!7185 S1_V3_!7178)))
    (let (($x62609 (or $x63164 $x62735)))
    (let (($x62528 (= S1_V3_!7185 S1_V3_!7169)))
    (let (($x62879 (or $x61423 $x62528)))
    (let (($x60227 (= S1_V3_!7185 S1_V3_!7163)))
    (let (($x61385 (or $x63180 $x60227)))
    (let (($x62378 (= S1_V3_!7169 S1_V3_!7178)))
    (let (($x60008 (or $x61070 $x62378)))
    (let (($x62643 (= S1_V3_!7163 S1_V3_!7178)))
    (let (($x61067 (or $x62606 $x62643)))
    (let (($x61030 (= S1_V3_!7163 S1_V3_!7169)))
    (let (($x63217 (or $x62278 $x61030)))
    (let (($x63185 (= S1_V1_!7184 S1_V1_!7168)))
    (let (($x62350 (or $x61423 $x63185)))
    (let (($x59939 (= S1_V1_!7177 S1_V1_!7184)))
    (let (($x62494 (or $x62425 $x59939)))
    (let (($x62835 (= S1_V1_!7177 S1_V1_!7168)))
    (let (($x62857 (or $x62471 $x62835)))
    (let (($x61009 (= S1_V1_!7177 S1_V1_!7162)))
    (let (($x62686 (or $x62330 $x61009)))
    (let (($x62749 (= S1_V1_!7162 S1_V1_!7184)))
    (let (($x63024 (or $x63179 $x62749)))
    (let (($x61246 (= S1_V1_!7162 S1_V1_!7168)))
    (let (($x62301 (or $x62278 $x61246)))
    (let
    (($x63037
      (and $x62301 $x63024 $x62686 $x62857 $x62494 $x62350 $x63217 $x61067
      $x60008 $x61385 $x62879 $x62609 $x62467 $x59879 $x62680 $x62719 $x61005
      $x61479 $x60079 $x62649 $x62689 $x60281 $x59846 $x61247 $x62996 $x62493
      $x62852 $x62894 $x62321 $x60241 $x62815 $x62258 $x62429 $x61142 $x62434
      $x62984 $x59928 $x62758 $x62700 $x60965 $x62841 $x60177 $x62691 $x60082
      $x62502 $x63061 $x62895 $x62812 $x62914 $x59910)))
    (let (($x62504 (not $x63037))) (or $x62504 $x62455 $x62486)))))))))))))))))))))))))))))))))))))))))))))))))))))))))))))))))))))))))))))))))))))))))))))))))))))))))))))))))))))))))))))))))))))))))))))))))))))))))))))))))))))))))))))))))))))))))))))))))))))))))))))))))))))))))))))))))))))))))))))))))))))))))))))))))))))))))))))))))))))))))))))))))))))))))))))))))
 (let (($x119 (not R_E1_V5)))
 (let (($x40 (and W_S1_V6 R_S1_V6)))
 (let (($x38 (and W_S1_V4 R_S1_V4)))
 (let (($x32 (and W_S1_V3 R_S1_V3)))
 (let (($x30 (and W_S1_V1 R_S1_V1)))
 (let (($x63088 (or $x30 $x32 R_S1_V5 $x38 $x40)))
 (let (($x60978 (not $x63088)))
 (let (($x63051 (= DISJ_W_S1_R_S1 $x60978)))
 (let (($x24 (and W_S1_V6 R_E2_V6)))
 (let (($x21 (and W_S1_V4 R_E2_V4)))
 (let (($x10 (and W_S1_V1 R_E2_V1)))
 (let (($x63118 (or $x10 R_E2_V5 $x21 $x24)))
 (let (($x62718 (not $x63118)))
 (let (($x63178 (= DISJ_W_S1_R_E2 $x62718)))
 (let (($x59799 (not W_S1_V4)))
 (let (($x199 (not R_S1_V3)))
 (let (($x197 (not R_S1_V1)))
 (let (($x64036 (and $x197 $x199 $x59799)))
 (let (($x59792 (not W_S1_V3)))
 (let (($x62952 (and $x59792 $x59799)))
 (let (($x59788 (not W_S1_V1)))
 (let (($x64788 (or DISJ_W_S1_R_S1 $x59788 $x62952 $x64036)))
 (let (($x59796 (not W_S1_V2)))
 (let (($x115 (not R_E1_V3)))
 (let (($x113 (not R_E1_V1)))
 (let (($x130 (not R_E2_V3)))
 (and DISJ_W_S1_R_E1 $x130 $x113 $x115 $x59796 $x64788 W_S1_V5 $x63178
 $x63051 $x119 $x61276 $x63315 $x61459)))))))))))))))))))))))))))))))))
(assert (not DISJ_W_S1_R_S1))
(check-sat)
(exit)

